p cnf 10 20
-3 5 -1 0
1 -4 -9 0
3 10 -2 0
6 -2 4 0
5 9 -4 0
5 8 -2 0
3 9 -8 0
6 -5 -3 0
4 -3 -8 0
10 -8 -3 0
10 -7 6 0
-6 -2 9 0
7 1 3 0
1 10 7 0
8 -3 -5 0
2 -4 8 0
10 8 2 0
5 -10 -2 0
2 -8 -1 0
-7 5 -8 0
